% demand
num_movements = 30;
loading_factor = [850, 1950, 1650, 1250, 1250, 900, 1300, 1600, 1100, 1450, 1100, 1350, 1400, 1450, 1900, 1900, 1750, 800, 1250, 1700, 1150, 900, 850, 1150, 1000, 1200, 1200, 950, 950, 1650];
pickup_time = [0, 0, 1, 1, 1, 2, 2, 3, 3, 4, 4, 4, 5, 6, 6, 7, 8, 8, 10, 10, 10, 10, 10, 10, 11, 11, 12, 12, 12, 12];
delivery_time = [2, 2, 5, 2, 2, 3, 6, 4, 4, 6, 8, 6, 6, 8, 8, 8, 10, 9, 11, 11, 11, 11, 11, 11, 13, 13, 13, 13, 13, 13];

% transporter definition
total_capacity = 7000;
num_decks = 3;
capacity = [3000, 1000, 3000];

% ways out of decks
num_ways_out = 1;
paths_out = array3d(decks, ways_out, decks, [
% ways out of deck d1
2, 3, 0, 

% ways out of deck d2
3, 0, 0, 

% ways out of deck d3
0, 0, 0,	

]);

